p wcnf 1000 200 1
1 1 0
1 2 0
1 3 0
1 4 0
1 5 0
1 6 0
1 7 0
1 8 0
1 9 0
1 10 0
1 11 0
1 12 0
1 2 2 2 3 3 3 3 4 4 4 4 0
1 4 4 4 4 4 4 5 5 5 5 5 0
1 5 5 5 5 5 6 6 6 6 6 6 0
1 6 6 6 6 6 6 6 7 7 7 7 0
1 7 8 8 8 8 8 8 8 8 8 8 0
1 9 9 9 9 9 9 9 9 9 9 9 0
1 10 10 10 10 10 10 10 10 10 11 11 0
1 11 11 11 12 12 12 12 12 12 12 12 0
1 12 12 13 13 13 13 13 13 14 14 14 0
1 14 14 14 14 14 15 15 15 15 15 15 0
1 15 15 15 15 16 16 16 16 16 16 16 0
1 16 16 16 16 16 16 16 16 16 17 17 0
1 17 17 17 17 17 17 17 17 18 18 18 0
1 18 18 18 18 18 19 19 19 19 19 19 0
1 20 20 20 20 21 21 21 21 21 21 22 0
1 22 22 22 22 22 22 22 22 22 22 23 0
1 23 23 24 24 24 24 24 24 24 24 24 0
1 24 24 24 24 24 24 24 24 25 25 25 0
1 25 25 25 25 26 26 26 26 26 26 26 0
1 26 26 27 27 27 27 27 27 27 27 27 0
1 27 27 27 27 27 27 28 28 28 28 28 0
1 28 29 29 29 29 29 29 29 29 29 29 0
1 29 29 30 30 30 30 30 30 30 30 30 0
1 30 31 31 31 31 31 31 31 31 31 31 0
1 32 32 32 32 32 32 32 32 32 32 32 0
1 33 33 33 33 33 33 34 34 34 34 34 0
1 34 34 34 34 34 34 34 35 35 35 35 0
1 35 35 35 36 36 36 36 36 36 36 36 0
1 37 37 37 37 37 37 37 37 37 37 37 0
1 38 38 38 38 38 38 39 39 39 39 39 0
1 39 40 40 40 40 41 41 41 41 41 41 0
1 41 41 42 42 42 42 42 43 43 43 43 0
1 43 43 43 43 43 43 44 44 44 44 44 0
1 44 44 44 45 45 45 45 45 45 45 45 0
1 45 45 45 45 46 46 46 46 47 47 47 0
1 47 47 47 47 48 48 48 48 48 48 48 0
1 48 48 48 49 49 49 49 49 49 50 50 0
1 50 50 50 50 50 50 51 51 51 51 51 0
1 51 51 51 51 51 51 52 52 52 53 53 0
1 53 53 53 53 53 53 53 53 53 53 54 0
1 54 54 54 54 54 54 55 55 55 55 55 0
1 55 55 55 55 56 56 56 56 56 56 56 0
1 57 57 57 57 57 57 58 58 58 58 58 0
1 58 58 58 58 59 59 59 59 59 59 59 0
1 59 59 59 60 60 60 60 60 60 60 60 0
1 61 61 61 61 61 62 62 62 62 62 62 0
1 62 62 62 62 62 62 62 62 62 63 63 0
1 63 63 63 63 63 63 63 63 63 63 64 0
1 64 64 64 64 64 64 64 64 64 64 64 0
1 65 65 65 65 65 65 65 65 65 65 65 0
1 66 66 66 66 66 66 66 66 66 66 66 0
1 66 67 67 67 67 67 67 67 67 67 67 0
1 68 68 68 68 68 68 68 68 68 68 69 0
1 69 69 69 69 69 69 69 69 69 69 69 0
1 69 69 69 69 69 69 70 70 70 70 70 0
1 70 70 70 70 70 70 71 71 71 71 71 0
1 71 71 71 71 71 71 71 71 72 72 72 0
1 72 72 72 72 72 72 72 72 72 72 73 0
1 73 73 73 73 73 73 73 73 73 73 74 0
1 74 74 74 74 74 74 75 75 75 75 75 0
1 75 75 75 75 76 76 76 76 76 76 77 0
1 77 77 77 77 77 77 77 77 77 77 77 0
1 78 78 78 78 78 78 78 78 78 78 78 0
1 78 78 78 78 79 79 79 79 79 79 79 0
1 79 80 80 80 80 80 80 80 80 80 80 0
1 81 81 81 81 81 81 81 81 81 82 82 0
1 82 82 82 82 82 83 83 83 83 83 83 0
1 83 83 84 84 84 84 84 84 84 84 84 0
1 84 85 85 85 85 85 85 85 85 85 85 0
1 86 86 86 86 86 86 86 86 86 86 86 0
1 86 86 87 87 87 87 87 88 88 88 88 0
1 88 88 88 88 88 88 88 88 88 88 88 0
1 89 89 89 89 89 89 89 89 90 90 90 0
1 90 90 90 90 90 90 90 90 91 91 91 0
1 91 91 91 92 92 92 92 92 92 92 92 0
1 92 92 92 93 93 93 93 93 94 94 94 0
1 94 94 94 94 94 94 94 94 94 95 95 0
1 95 95 95 95 95 95 95 95 95 96 96 0
1 96 96 96 96 96 96 96 96 96 97 97 0
1 97 97 97 97 98 98 98 98 98 98 98 0
1 98 98 98 98 99 99 99 99 99 99 99 0
1 99 100 100 100 100 100 100 100 100 100 100 0
1 100 100 100 0
1  0
1 54 140 335 418 473 480 497 541 546 564 602 0
1 697 710 790 856 869 965 967 0
1  0
1 213 296 396 434 522 531 533 535 589 666 683 0
1 786 820 822 837 995 0
1  0
1 24 322 344 404 567 622 672 695 880 944 977 0
1  0
1  0
1 130 155 239 267 457 542 700 716 718 802 828 0
1  0
1  0
1 55 86 140 145 157 320 326 370 371 398 418 0
1 526 692 699 740 833 940 980 0
1  0
1 79 99 190 193 213 300 389 419 555 709 754 0
1 814 843 879 888 906 0
1  0
1 159 215 226 228 262 302 328 341 431 680 721 0
1 900 902 959 966 0
1  0
1 39 67 80 103 175 183 186 190 255 394 435 0
1 524 528 548 554 606 671 696 826 837 842 851 0
1 919 936 981 0
1  0
1 110 134 179 236 526 554 594 616 751 776 817 0
1 841 873 0
1  0
1 64 66 73 118 132 206 265 303 368 465 488 0
1 831 834 890 924 978 995 997 0
1  0
1 31 32 75 155 281 328 393 406 433 493 512 0
1 570 584 668 737 758 843 931 936 0
1  0
1 28 57 139 204 229 345 388 497 498 501 624 0
1 744 963 985 0
1  0
1 68 142 148 186 237 271 321 371 376 422 466 0
1 550 582 629 644 645 652 653 694 854 894 911 0
1 932 962 966 983 0
1  0
1 32 37 55 120 138 170 237 267 304 313 464 0
1 473 589 672 682 753 758 770 813 874 877 947 0
1  0
1  0
1 68 90 158 159 166 168 314 340 349 442 456 0
1 652 672 681 702 788 807 815 852 934 935 979 0
1  0
1 114 122 188 271 321 395 455 471 506 523 557 0
1 589 654 683 709 789 824 984 0
1  0
1 77 113 119 163 263 374 456 538 640 658 663 0
1 852 890 922 941 0
1  0
1 91 136 179 188 280 282 309 325 337 391 456 0
1 587 656 674 684 735 789 0
1  0
1 231 247 303 308 319 390 397 432 471 554 632 0
1 744 751 818 836 0
1  0
1 100 111 160 183 214 352 368 431 465 517 698 0
1 763 827 846 878 920 970 0
1  0
1 67 103 104 156 179 185 235 362 455 526 534 0
1 561 562 576 580 637 685 716 744 756 815 880 0
1  0
1 106 121 292 339 470 480 527 530 588 589 590 0
1 747 795 798 877 894 927 0
1  0
1 85 112 130 148 186 202 281 417 438 448 551 0
1 648 689 699 726 735 783 785 812 832 926 0
1  0
1 32 101 140 219 266 327 366 393 550 580 585 0
1 832 983 0
1  0
1 86 99 126 174 208 281 321 323 332 378 386 0
1 494 505 560 582 627 842 852 900 935 951 0
1  0
1 62 68 106 130 157 162 245 262 272 275 307 0
1 417 434 442 502 518 531 577 581 921 992 0
1  0
1 200 208 219 236 429 462 519 520 616 698 703 0
1 907 936 996 0
1  0
1 36 94 155 162 181 184 232 263 368 380 406 0
1 474 477 500 524 533 609 760 794 795 866 884 0
1  0
1 89 98 143 149 160 296 322 355 475 509 591 0
1 649 669 677 740 0
1  0
1 44 170 175 199 458 483 494 517 535 595 668 0
1 745 771 888 935 969 983 0
1  0
1 49 69 118 227 260 291 361 396 514 602 616 0
1 651 744 760 765 842 883 900 939 959 960 992 0
1  0
1 102 334 350 405 418 431 446 494 563 578 625 0
1 667 669 685 690 784 832 848 881 898 952 978 0
1  0
1 101 102 104 281 310 337 351 466 469 519 630 0
1 680 723 729 732 738 882 908 992 993 0
1  0
1 20 115 136 158 193 222 294 301 325 357 438 0
1 462 550 614 631 637 684 701 967 981 0
1  0
1 52 53 61 101 113 152 174 214 273 333 354 0
1 436 482 661 726 749 847 895 916 924 941 0
1  0
1 34 57 97 186 197 212 215 274 320 360 431 0
1 460 515 646 689 872 913 953 999 0
1  0
1 70 94 166 224 225 269 338 343 415 482 602 0
1 666 699 712 720 814 821 872 901 971 0
1  0
1 48 51 65 170 182 252 261 274 399 417 431 0
1 468 484 537 548 708 714 809 858 860 868 877 0
